NAME: cluster_12
TYPE: TSP
DIMENSION: 19
EDGE_WEIGHT_TYPE: EUC_2D
NODE_COORD_SECTION
1 12000.00 16000.00
2 704.95 9262.29
3 4779.18 13963.31
4 187.78 2837.75
5 4345.31 13219.25
6 2378.12 10958.01
7 6944.36 6912.26
8 7390.78 12037.06
9 3052.03 5595.94
10 5326.13 13421.20
11 5360.16 10341.52
12 2591.28 2268.72
13 5255.93 8725.20
14 4154.07 10334.25
15 4023.47 2293.21
16 6850.61 6719.71
17 2885.07 13427.05
18 3929.56 13954.51
19 3309.79 6579.94
EOF
